;; sequence(s): A135516
;; terms: 1 3 35 899 44099 5336099 901800899 260620460099 94083986096099 49770428644836899 41856930490307832899 40224510201185827416899 55067354465423397733736099 92568222856376731590410384099
;; small program: loop(loop2(loop((compr((1 + loop(x * y, x, 1)) mod (1 + x), y) * x) + x, y, x), y, 2, 1, y), x, 2) - 1
;; fast program: loop2(loop((compr(loop((1 - loop(x + x, (x - 1) div 2, 2)) mod (1 + x), (1 + x) mod 2, x) - 2, y) + 1) * x, y, 1) * x, y, 2, 1, x) - loop(1, x, x)
(set-logic UFNIA)
(define-fun divf ((a Int) (b Int)) Int (ite (< 0 b) (div a b) (div (- a) (- b))))
(define-fun modf ((a Int) (b Int)) Int (ite (< 0 b) (mod a b) (- (mod (- a) (- b)))))
(declare-fun f4 (Int Int) Int)
(declare-fun g4 (Int) Int)
(declare-fun h4 () Int)
(declare-fun u4 (Int Int) Int)
(declare-fun v4 (Int) Int)
(declare-fun f3 (Int) Int)
(declare-fun g3 (Int Int) Int)
(declare-fun t3 (Int) Int)
(declare-fun u3 (Int) Int)
(declare-fun v3 (Int Int) Int)
(declare-fun f2 (Int Int) Int)
(declare-fun g2 (Int Int) Int)
(declare-fun h2 (Int) Int)
(declare-fun u2 (Int Int) Int)
(declare-fun v2 (Int Int) Int)
(declare-fun f1 (Int Int) Int)
(declare-fun g1 (Int Int) Int)
(declare-fun h1 () Int)
(declare-fun i1 () Int)
(declare-fun j1 (Int Int) Int)
(declare-fun u1 (Int Int Int) Int)
(declare-fun v1 (Int Int Int) Int)
(declare-fun w1 (Int Int) Int)
(declare-fun f0 (Int Int) Int)
(declare-fun g0 (Int) Int)
(declare-fun h0 () Int)
(declare-fun u0 (Int Int) Int)
(declare-fun v0 (Int) Int)
(declare-fun small (Int) Int)
(declare-fun f9 (Int) Int)
(declare-fun g9 (Int) Int)
(declare-fun h9 () Int)
(declare-fun u9 (Int Int) Int)
(declare-fun v9 (Int) Int)
(declare-fun f8 (Int) Int)
(declare-fun g8 (Int) Int)
(declare-fun h8 (Int) Int)
(declare-fun u8 (Int Int) Int)
(declare-fun v8 (Int) Int)
(declare-fun f7 (Int) Int)
(declare-fun g7 (Int Int) Int)
(declare-fun t7 (Int) Int)
(declare-fun u7 (Int) Int)
(declare-fun v7 (Int Int) Int)
(declare-fun f6 (Int Int) Int)
(declare-fun g6 (Int Int) Int)
(declare-fun h6 () Int)
(declare-fun u6 (Int Int) Int)
(declare-fun v6 (Int Int) Int)
(declare-fun f5 (Int Int) Int)
(declare-fun g5 (Int Int) Int)
(declare-fun h5 () Int)
(declare-fun i5 () Int)
(declare-fun j5 (Int) Int)
(declare-fun u5 (Int Int Int) Int)
(declare-fun v5 (Int Int Int) Int)
(declare-fun w5 (Int) Int)
(declare-fun f10 () Int)
(declare-fun g10 (Int) Int)
(declare-fun h10 (Int) Int)
(declare-fun u10 (Int Int) Int)
(declare-fun v10 (Int) Int)
(declare-fun fast (Int) Int)
(assert (forall ((x Int) (y Int)) (= (f4 x y) (* x y))))
(assert (forall ((x Int)) (= (g4 x) x)))
(assert (= h4 1))
(assert (forall ((x Int) (y Int)) (= (u4 x y) (ite (<= x 0) y (f4 (u4 (- x 1) y) x)))))
(assert (forall ((x Int)) (= (v4 x) (u4 (g4 x) h4))))
(assert (forall ((x Int)) (= (f3 x) (modf (+ 1 (v4 x)) (+ 1 x)))))
(assert (forall ((x Int) (y Int)) (= (g3 x y) y)))
(assert (forall ((x Int)) (= (t3 x) (ite (<= (f3 x) 0) x (t3 (+ x 1))))))
(assert (forall ((x Int)) (= (u3 x) (ite (<= x 0) (t3 0) (t3 (+ (u3 (- x 1)) 1))))))
(assert (forall ((x Int) (y Int)) (= (v3 x y) (u3 (g3 x y)))))
(assert (forall ((x Int) (y Int)) (= (f2 x y) (+ (* (v3 x y) x) x))))
(assert (forall ((x Int) (y Int)) (= (g2 x y) y)))
(assert (forall ((x Int)) (= (h2 x) x)))
(assert (forall ((x Int) (y Int)) (= (u2 x y) (ite (<= x 0) y (f2 (u2 (- x 1) y) x)))))
(assert (forall ((x Int) (y Int)) (= (v2 x y) (u2 (g2 x y) (h2 x)))))
(assert (forall ((x Int) (y Int)) (= (f1 x y) (v2 x y))))
(assert (forall ((x Int) (y Int)) (= (g1 x y) y)))
(assert (= h1 2))
(assert (= i1 1))
(assert (forall ((x Int) (y Int)) (= (j1 x y) y)))
(assert (forall ((x Int) (y Int) (z Int)) (= (u1 x y z) (ite (<= x 0) y (f1 (u1 (- x 1) y z) (v1 (- x 1) y z))))))
(assert (forall ((x Int) (y Int) (z Int)) (= (v1 x y z) (ite (<= x 0) z (g1 (u1 (- x 1) y z) (v1 (- x 1) y z))))))
(assert (forall ((x Int) (y Int)) (= (w1 x y) (u1 h1 i1 (j1 x y)))))
(assert (forall ((x Int) (y Int)) (= (f0 x y) (w1 x y))))
(assert (forall ((x Int)) (= (g0 x) x)))
(assert (= h0 2))
(assert (forall ((x Int) (y Int)) (= (u0 x y) (ite (<= x 0) y (f0 (u0 (- x 1) y) x)))))
(assert (forall ((x Int)) (= (v0 x) (u0 (g0 x) h0))))
(assert (forall ((x Int)) (= (small x) (- (v0 x) 1))))
(assert (forall ((x Int)) (= (f9 x) (+ x x))))
(assert (forall ((x Int)) (= (g9 x) (divf (- x 1) 2))))
(assert (= h9 2))
(assert (forall ((x Int) (y Int)) (= (u9 x y) (ite (<= x 0) y (f9 (u9 (- x 1) y))))))
(assert (forall ((x Int)) (= (v9 x) (u9 (g9 x) h9))))
(assert (forall ((x Int)) (= (f8 x) (modf (- 1 (v9 x)) (+ 1 x)))))
(assert (forall ((x Int)) (= (g8 x) (modf (+ 1 x) 2))))
(assert (forall ((x Int)) (= (h8 x) x)))
(assert (forall ((x Int) (y Int)) (= (u8 x y) (ite (<= x 0) y (f8 (u8 (- x 1) y))))))
(assert (forall ((x Int)) (= (v8 x) (u8 (g8 x) (h8 x)))))
(assert (forall ((x Int)) (= (f7 x) (- (v8 x) 2))))
(assert (forall ((x Int) (y Int)) (= (g7 x y) y)))
(assert (forall ((x Int)) (= (t7 x) (ite (<= (f7 x) 0) x (t7 (+ x 1))))))
(assert (forall ((x Int)) (= (u7 x) (ite (<= x 0) (t7 0) (t7 (+ (u7 (- x 1)) 1))))))
(assert (forall ((x Int) (y Int)) (= (v7 x y) (u7 (g7 x y)))))
(assert (forall ((x Int) (y Int)) (= (f6 x y) (* (+ (v7 x y) 1) x))))
(assert (forall ((x Int) (y Int)) (= (g6 x y) y)))
(assert (= h6 1))
(assert (forall ((x Int) (y Int)) (= (u6 x y) (ite (<= x 0) y (f6 (u6 (- x 1) y) x)))))
(assert (forall ((x Int) (y Int)) (= (v6 x y) (u6 (g6 x y) h6))))
(assert (forall ((x Int) (y Int)) (= (f5 x y) (* (v6 x y) x))))
(assert (forall ((x Int) (y Int)) (= (g5 x y) y)))
(assert (= h5 2))
(assert (= i5 1))
(assert (forall ((x Int)) (= (j5 x) x)))
(assert (forall ((x Int) (y Int) (z Int)) (= (u5 x y z) (ite (<= x 0) y (f5 (u5 (- x 1) y z) (v5 (- x 1) y z))))))
(assert (forall ((x Int) (y Int) (z Int)) (= (v5 x y z) (ite (<= x 0) z (g5 (u5 (- x 1) y z) (v5 (- x 1) y z))))))
(assert (forall ((x Int)) (= (w5 x) (u5 h5 i5 (j5 x)))))
(assert (= f10 1))
(assert (forall ((x Int)) (= (g10 x) x)))
(assert (forall ((x Int)) (= (h10 x) x)))
(assert (forall ((x Int) (y Int)) (= (u10 x y) (ite (<= x 0) y f10))))
(assert (forall ((x Int)) (= (v10 x) (u10 (g10 x) (h10 x)))))
(assert (forall ((x Int)) (= (fast x) (- (w5 x) (v10 x)))))
(assert (exists ((c Int)) (and (>= c 0) (not (= (small c) (fast c))))))
(check-sat)
